NAME: rd100
DIMENSION: 17
EDGE_WEIGHT_TYPE: EUC_2D
NODE_COORD_SECTION
1 144 863
2 882 1
3 545 735
4 503 876
5 205 345
6 702 577
7 147 164
8 135 808
9 629 977
10 675 731
11 314 299
12 446 982
13 355 765
14 398 976
15 273 854
16 666 312
17 877 925
ACCEPTED_PROBABILITIES
0.0
0.95
0.35
0.3
0.44
0.53
0.58
0.05
0.42
0.46
0.49
0.27
0.19
0.23
0.11
0.64
0.62
OUTSOURCING_COSTS
0.0
70.88
26.31
22.44
32.56
39.19
43.63
3.44
31.19
34.19
36.81
20.31
14.5
17.38
8.13
47.44
46.0
